c read Graph
c width = 22
c time = 34 ms
c width = 3
c time = 49 ms
c width = 3
c time = 5458 ms
s td 39 4 42
b 1 1 2 15
b 2 2 3 15 16
b 3 12 13 27 28
b 4 3 15 16 30
b 5 3 16 17 30
b 6 12 27 28 41
b 7 3 17 30 31
b 8 3 17 31 32
b 9 12 27 40 41
b 10 3 4 17 32
b 11 4 17 18 32
b 12 4 18 19 32
b 13 12 26 27 40
b 14 4 19 32 33
b 15 4 19 33 34
b 16 12 26 39 40
b 17 4 5 19 34
b 18 5 19 20 34
b 19 5 6 20 34
b 20 12 25 26 39
b 21 11 12 25 39
b 22 6 7 20 34
b 23 7 20 21 34
b 24 7 21 34 35
b 25 7 8 21 35
b 26 8 21 22 35
b 27 8 22 35 36
b 28 8 9 22 36
b 29 9 22 23 36
b 30 9 23 36 37
b 31 9 10 23 37
b 32 10 23 24 37
b 33 10 24 37 38
b 34 10 11 24 38
b 35 11 24 25 38
b 36 11 25 38 39
b 37 28 41 42
b 38 15 29 30
b 39 13 14 28
1 2
2 4
3 39
3 6
4 38
4 5
5 7
6 37
6 9
7 8
8 10
9 13
10 11
11 12
12 14
13 16
14 15
15 17
16 20
17 18
18 19
19 22
20 21
21 36
22 23
23 24
24 25
25 26
26 27
27 28
28 29
29 30
30 31
31 32
32 33
33 34
34 35
35 36
